1642
98 25 43 6 44 15 1 60 76 40 83 67 32 55 66 54 45 69 12 86 94 7 38 87 9 77 71 24 41 37 74 20 79 46 82 64 81 27 33 48 50 19 2 53 39 59 21 22 78 3 73 99 49 75 95 57 4 28 70 88 29 35 5 97 52 96 16 13 92 89 80 51 84 36 10 30 68 14 93 17 31 85 58 62 42 56 18 26 23 61 34 91 63 8 47 72 11 65 90 
